instances/shortest_path/discrete/shortest_path_2_3.lp
\ Model nohadani_2_3
\ LP format - for model browsing. Use MPS format to capture full model detail.
\ Signature: 0x2b3c2f32d9f8b44a
Minimize
  41.97618372363071 y[0,1] + 41.97618372363071 y[1,0] + x[0,1] + x[1,0]
   + 4.197618372363071 r[0,1] + 4.197618372363071 r[1,0]
Subject To
 flow_cons_source: y[0,1] - y[1,0] = 1
 flow_cons_target: y[0,1] - y[1,0] = 1
 primal_lower: 10.79555846406484 x[0,1] + 25.9201105715233 x[1,0]
   + 63 u[0,1] + 67 u[1,0] <= 67
 mccormick1[0,1]: - u[0,1] + r[0,1] <= 0
 mccormick1[1,0]: - u[1,0] + r[1,0] <= 0
 mccormick2[0,1]: - y[0,1] + r[0,1] <= 0
 mccormick2[1,0]: - y[1,0] + r[1,0] <= 0
 mccormick3[0,1]: - y[0,1] - u[0,1] + r[0,1] >= -1
 mccormick3[1,0]: - y[1,0] - u[1,0] + r[1,0] >= -1
Bounds
Binaries
 y[0,1] y[1,0] x[0,1] x[1,0] u[0,1] u[1,0] r[0,1] r[1,0]
End
