instances/shortest_path/discrete/shortest_path_2_3.kp
20800
67

[10.795558464064838 25.920110571523296]

[63 67]
